\ENCODING=ISO-8859-1
\Problem name: 

Minimize
 obj1: 64 x_1 + 73 x_2 + 46 x_3 + 56 x_4 + 60 x_5 + 63 x_6 + 68 x_7 + 76 x_8
       + 43 x_9 + 48 x_10 + 72 x_11 + 56 x_12 + 51 x_13 + 64 x_14 + 65 x_15
       + 71 x_16 + 40 x_17 + 78 x_18 + 66 x_19 + 79 x_20 + t
Subject To
 c1: x_1 + x_2 + x_3 + x_4 + x_5 + x_6 + x_7 + x_8 + x_9 + x_10 + x_11 + x_12
     + x_13 + x_14 + x_15 + x_16 + x_17 + x_18 + x_19 + x_20 <= 20
Bounds
 0 <= x_1 <= 1
 0 <= x_2 <= 1
 0 <= x_3 <= 1
 0 <= x_4 <= 1
 0 <= x_5 <= 1
 0 <= x_6 <= 1
 0 <= x_7 <= 1
 0 <= x_8 <= 1
 0 <= x_9 <= 1
 0 <= x_10 <= 1
 0 <= x_11 <= 1
 0 <= x_12 <= 1
 0 <= x_13 <= 1
 0 <= x_14 <= 1
 0 <= x_15 <= 1
 0 <= x_16 <= 1
 0 <= x_17 <= 1
 0 <= x_18 <= 1
 0 <= x_19 <= 1
 0 <= x_20 <= 1
      t >= -25191
Binaries
 x_1  x_2  x_3  x_4  x_5  x_6  x_7  x_8  x_9  x_10  x_11  x_12  x_13  x_14 
 x_15  x_16  x_17  x_18  x_19  x_20 
End
